s td 10 21 30
b 1 1 2 5 6 7 8 9 10 11 12 13 14 15 17 21 22 23 24 27 29 30
b 2 1 4 5 6 7 8 9 10 11 12 13 14 15 17 21 22 23 24 27 29 30
b 3 1 3 4 5 6 9 10 11 12 13 17 21 22 23 24 27 29 30
b 4 3 5 6 9 10 12 13 18 23 24 30
b 5 1 4 6 7 8 9 10 11 12 13 14 15 17 20 21 23 29 30
b 6 4 6 7 10 11 13 14 17 20 23 25 29 30
b 7 1 2 5 6 7 8 9 10 11 12 13 14 15 21 22 23 24 26 27 29 30
b 8 1 5 6 7 8 10 13 14 15 16 21 22 23 24 26 27 29 30
b 9 5 6 13 15 16 21 22 24 26 27 28 29 30
b 10 1 2 5 6 8 9 11 12 15 19 22 23 26 27
1 2
1 7
2 3
2 5
3 4
5 6
7 8
7 10
8 9
